proyfinal/src/viki/013/experimentInOfficeAgust.take6.output/fcb822b8-2cf2-498c-b062-c40b181b80b2.als.dat
{'cnf.clauses': '118081',
 'cnf.totvars': '69608',
 'conflict literals': '32',
 'conflicts': '12',
 'decisions': '3526',
 'memused.mb': '16.68',
 'outcome': 'UNSAT',
 'propagations': '25808',
 'restarts': '1',
 'solver.msecs': 37,
 'task.msecs': 91}
