proyfinal/src/viki/013/experimentInOfficeAgust.take6.output/fcb822b8-2cf2-498c-b062-c40b181b80b2.als.out
Reading from standard input... Use '--help' for help.
============================[ Problem Statistics ]=============================
|                                                                             |
|  Number of variables:         69608                                         |
|  Number of clauses:          118081                                         |
|  Parse time:                   0.03 s                                       |
|                                                                             |
============================[ Search Statistics ]==============================
| Conflicts |          ORIGINAL         |          LEARNT          | Progress |
|           |    Vars  Clauses Literals |    Limit  Clauses Lit/Cl |          |
===============================================================================
===============================================================================
restarts              : 1
conflicts             : 12             (318 /sec)
decisions             : 3526           (0.00 % random) (93322 /sec)
propagations          : 25808          (683059 /sec)
conflict literals     : 32             (0.00 % deleted)
Memory used           : 16.68 MB
CPU time              : 0.037783 s

UNSATISFIABLE
